c status 280 1469391197151
c status 203 1469391197192
c status 195 1469391198512
c status 191 1469391198623
c status 190 1469391203020
c status 187 1469391211376
c status 186 1469391363008
s td 191 186 416
b 1 254 271
b 2 305 320
b 3 317 344
b 4 292 367
b 5 329 127
b 6 220 56
b 7 399 83
b 8 156 231 166
b 9 68 148 177
b 10 148 177 215
b 11 60 160 335
b 12 155 374 222
b 13 265 325 295
b 14 269 133 351
b 15 304 331 322
b 16 320 340 115
b 17 315 338 344
b 18 349 346 327
b 19 415 132 99
b 20 152 284 267 174 388
b 21 194 284 102 94 372 157 124 377 357 378
b 22 284 38 14 120 102 94 19 103 267 407 372 157 39 174 11 379 124 371 377 357 388 378
b 23 38 46 14 120 102 94 359 162 41 19 103 267 375 407 372 157 39 174 223 11 379 186 182 124 125 75 371 394 203 112 377 357 106 268 355 388 52 378
b 24 266 256 199 229 171 15
b 25 256 416 46 14 84 190 113 102 160 199 389 229 179 83 72 223 248 26 365 411 171 17 15 115
b 26 416 37 46 14 84 190 113 102 135 160 358 199 389 229 179 83 224 188 72 223 248 26 186 365 411 171 258 66 361 17 15 277 115 235 251
b 27 37 46 14 84 190 153 113 102 135 160 358 199 389 229 179 83 224 142 188 72 223 248 26 186 365 411 171 258 66 361 17 15 277 115 281 235 251
b 28 46 14 84 190 153 113 120 102 135 94 160 358 359 199 162 41 19 103 267 375 407 372 157 39 174 389 229 179 83 116 224 142 188 72 223 11 379 248 26 186 182 124 125 75 365 371 411 171 258 66 394 361 203 112 17 377 15 357 106 268 355 277 388 115 281 235 251 52 378
b 29 14 84 190 153 113 120 102 135 94 160 412 358 359 286 199 162 41 19 103 267 375 407 372 157 39 174 389 229 179 83 116 224 142 188 72 223 11 379 248 26 186 182 124 125 75 365 371 411 171 258 66 394 361 203 112 17 377 15 357 106 268 355 277 388 115 281 235 251 52 378
b 30 13 253 252 153 387 407 116 246 29 142 131 180 110 201 394 404 17 390 15 226 88
b 31 253 252 153 387 102 10 407 237 116 246 29 142 131 180 110 368 201 394 404 17 390 15 226 90 88
b 32 252 153 387 102 10 407 237 116 246 29 142 131 180 110 368 201 394 404 17 390 15 44 226 90 88 378
b 33 261 211 383 84 113 30 302 188 104 273 76 78 209
b 34 211 400 383 84 113 30 302 188 104 273 76 78 147 209
b 35 400 183 383 84 113 30 302 174 188 122 104 53 357 264 273 76 78 147 209
b 36 183 403 383 84 190 153 113 30 302 356 168 22 359 19 43 109 250 391 59 174 188 122 242 225 185 233 193 89 201 189 26 182 66 58 104 53 112 17 137 357 44 33 264 273 76 78 147 209 101
b 37 206 313 403 383 120 405 22 272 123 154 4 242 89 376 24 53 176 203 69 274 165 9 101
b 38 313 202 403 383 120 92 405 22 359 272 123 43 391 154 31 59 4 242 89 129 75 376 24 53 176 203 347 12 355 69 274 165 9 101
b 39 202 403 383 120 92 405 358 22 359 272 123 43 391 154 31 59 4 242 89 129 75 376 24 53 176 203 347 12 355 76 69 274 165 9 101
b 40 403 383 84 190 153 113 120 92 30 302 356 168 405 358 22 359 272 123 19 43 109 250 391 154 31 59 174 188 122 4 242 225 185 233 193 89 201 189 26 182 129 75 376 66 24 58 104 53 176 203 112 347 17 137 357 44 33 178 264 12 355 273 76 78 388 147 209 69 274 165 9 101
b 41 383 84 190 153 113 120 92 30 135 302 356 168 405 358 22 359 222 272 123 19 43 109 250 391 154 31 59 174 188 122 4 242 225 185 233 193 89 201 189 26 182 129 75 376 66 24 58 104 53 176 203 112 347 17 137 357 44 33 178 264 12 355 273 76 78 388 147 209 69 274 165 9 101
b 42 84 190 153 113 120 92 30 102 135 302 356 168 94 160 412 405 358 22 359 79 286 199 222 272 123 162 41 19 103 267 43 109 375 250 407 391 372 157 154 31 39 59 174 389 229 179 83 116 224 142 188 72 223 122 4 242 225 185 11 233 379 193 89 201 248 189 26 186 182 124 129 125 75 365 371 376 411 171 172 258 66 24 58 104 53 394 361 176 203 112 347 17 377 137 15 357 44 33 106 178 264 12 268 355 277 273 76 78 388 115 147 209 69 274 281 235 251 52 165 378 9 101
b 43 190 153 113 120 92 30 102 135 302 356 168 94 160 412 405 358 22 10 359 79 286 199 222 272 123 162 41 19 103 267 43 109 375 250 407 391 372 157 154 31 39 59 174 389 139 229 179 83 116 224 142 188 72 223 122 4 242 225 185 11 233 379 193 89 201 248 189 26 186 182 124 129 125 75 365 371 376 411 171 172 258 66 24 58 104 53 394 361 176 203 112 347 17 377 137 15 357 44 33 106 178 264 12 268 355 277 273 76 78 388 115 147 209 69 274 281 235 251 52 165 378 9 101
b 44 153 113 120 92 387 30 102 135 302 356 168 94 160 412 405 358 22 10 359 79 286 199 222 272 123 162 41 19 103 267 43 109 375 250 407 391 372 157 373 154 31 39 59 174 389 237 139 229 179 83 116 246 29 224 142 131 180 188 72 223 122 110 368 4 242 225 185 11 233 379 193 89 201 248 189 26 186 182 124 129 125 75 365 371 376 411 171 172 258 66 24 58 104 53 394 361 176 404 203 112 347 17 390 377 137 15 357 44 33 106 178 264 12 268 355 277 273 76 78 388 115 147 209 69 226 274 281 235 90 251 88 52 165 378 9 101
b 45 398 45 136 387 22 10 359 199 222 123 204 31 335 59 174 242 225 376 24 137
b 46 50 45 85 150 271 102 135 414 282 228 360 180 362 223 62 392 143 376 258 347 390 257
b 47 45 27 85 150 271 136 387 102 135 160 412 22 10 359 199 222 123 414 373 204 31 335 59 174 282 169 228 360 180 362 223 4 242 225 5 62 392 143 376 258 24 361 347 390 137 238 257
b 48 27 85 150 271 65 136 387 102 135 160 412 22 10 359 199 222 123 414 103 373 204 31 335 59 174 282 169 228 360 180 362 223 4 242 225 5 62 392 143 376 258 24 361 347 390 137 238 257
b 49 36 161 85 159 246 216 69 249 235 165
b 50 161 82 85 356 94 159 372 239 246 216 69 249 235 410 165
b 51 82 85 356 94 159 372 239 246 122 216 218 69 249 235 410 165
b 52 85 150 271 65 136 387 102 135 356 94 160 412 22 10 359 199 222 123 414 159 103 372 239 373 204 31 335 59 174 282 169 228 246 360 180 362 223 122 216 4 242 225 218 5 62 392 143 376 258 24 361 347 390 137 238 257 78 69 249 235 410 165
b 53 48 385 65 86
b 54 385 280 402 65 168 10 375 86 357
b 55 364 363 280 170 279 216 11 273 147 262
b 56 324 363 271 102 16 79 41 31 174 179 245 270 4 171 24
b 57 363 132 280 271 102 22 16 79 51 41 31 174 179 245 170 279 270 216 4 11 171 24 273 147 262
b 58 132 280 271 136 387 30 102 22 16 79 51 41 31 174 179 245 170 279 99 270 216 4 11 186 171 24 404 138 1 273 147 262
b 59 280 402 271 65 136 387 30 102 356 168 22 10 16 79 51 41 375 31 174 86 169 179 245 170 279 99 270 216 4 11 186 171 24 404 203 138 357 1 273 147 262
b 60 196 67 271 160 245 88
b 61 213 177 168 361
b 62 177 67 168 166 215 223 368 124 361 203 88
b 63 67 234 271 168 160 166 215 245 223 368 124 361 203 88
b 64 234 402 150 271 120 302 168 160 375 18 166 215 409 245 224 188 192 149 223 368 248 124 53 361 404 203 377 44 88
b 65 402 150 271 65 136 120 387 30 102 302 356 168 160 22 10 16 79 51 41 375 31 174 18 86 169 166 215 179 409 245 170 279 224 188 192 149 223 99 270 216 368 4 11 248 186 124 171 24 53 361 404 203 377 138 357 44 1 273 147 262 88
b 66 354 77 150 271 92 387 359 250 154 218 105 404 112 347 273
b 67 217 382 77 65 136 405 358 286 215 144 237 228 142 263 149 189 182 75 365 24 57 226 274 128 251
b 68 382 77 65 136 94 405 358 286 215 144 237 228 142 263 149 189 182 75 365 24 57 226 274 128 251
b 69 77 150 271 65 136 92 387 94 405 358 359 286 414 250 157 154 215 144 237 228 142 263 149 218 105 189 182 75 365 24 404 112 347 57 273 226 274 128 251
b 70 150 271 65 136 120 92 387 30 102 135 302 356 168 94 160 412 405 358 22 10 359 16 79 286 199 222 123 414 51 159 41 103 375 250 372 157 239 373 154 204 31 335 59 174 18 86 282 169 166 215 144 237 228 179 409 245 246 170 279 224 142 360 180 188 192 263 149 362 223 99 270 122 216 368 4 242 225 11 218 5 62 248 105 392 143 189 186 182 124 75 365 376 171 258 24 53 361 404 203 112 347 390 57 377 137 138 357 44 1 238 257 273 78 147 69 249 226 274 262 128 235 410 251 88 165
b 71 271 65 136 120 92 387 30 102 135 302 356 168 94 160 412 405 358 22 10 359 16 79 286 199 222 123 414 51 159 41 103 375 250 372 157 239 373 154 204 31 335 59 174 18 86 282 169 166 215 144 237 228 179 409 245 246 170 279 224 142 360 180 188 192 263 149 362 223 99 270 122 216 368 4 242 225 11 218 5 62 248 105 392 143 189 186 182 124 75 365 376 171 258 24 53 361 404 203 112 347 390 57 377 137 138 357 44 1 238 257 273 78 147 69 249 226 274 262 128 235 410 251 88 165 378
b 72 65 136 120 92 387 30 102 135 302 356 168 94 160 412 405 358 22 10 359 16 79 286 199 222 123 414 51 159 41 55 103 375 250 372 157 239 373 154 204 31 335 59 174 18 86 282 169 166 215 144 237 228 179 409 245 246 170 279 224 142 360 180 188 192 263 149 362 223 99 270 122 216 368 4 242 225 11 218 5 62 248 105 392 143 189 186 182 124 75 365 376 171 258 24 53 361 404 203 112 347 390 57 377 137 138 357 44 1 238 257 273 78 147 69 249 226 274 262 128 235 410 251 88 165 378
b 73 130 336 120 302 168 94 412 51 164 279 172 390 2 21 262 235 88
b 74 336 120 387 302 168 94 412 51 70 164 279 149 40 172 66 390 138 2 21 262 235 88
b 75 47 210 92 302 10 291 83 212 98 124 125 15
b 76 210 92 302 405 10 373 291 83 212 98 124 125 347 15
b 77 120 92 387 30 102 135 302 356 168 94 160 412 405 358 22 10 359 16 79 286 199 222 272 123 162 414 51 159 41 70 55 19 103 267 43 109 375 250 407 391 372 157 239 373 154 204 31 335 39 59 174 18 86 282 169 164 166 215 144 389 237 228 139 229 179 409 245 83 116 246 170 279 29 224 142 131 360 180 188 192 263 149 72 362 223 99 270 122 110 216 368 4 242 225 185 11 233 379 40 193 218 89 201 5 62 248 105 392 143 189 26 186 182 124 129 125 75 365 371 376 411 171 172 258 66 24 58 104 53 394 361 176 404 203 112 347 17 390 57 377 137 15 138 357 44 1 33 106 178 264 238 12 268 355 257 277 2 273 76 78 388 115 21 147 209 69 249 226 274 281 262 128 235 90 410 251 88 52 165 378 9 101
b 78 92 387 30 102 135 302 356 168 94 160 412 405 358 22 10 359 16 79 286 199 222 272 123 162 414 51 159 41 70 55 19 103 267 43 109 375 250 407 391 372 157 239 373 154 204 31 335 39 59 174 18 86 282 169 164 166 215 144 389 237 228 139 229 291 179 409 245 83 116 246 170 279 212 29 224 142 131 360 180 188 192 263 149 72 98 362 223 99 270 122 110 216 368 4 242 225 185 11 233 379 40 193 218 89 201 5 62 248 105 392 143 189 26 186 182 124 129 125 75 365 371 376 411 171 172 258 66 24 58 104 53 394 361 176 404 203 112 347 17 390 57 377 137 15 138 357 44 1 33 106 178 264 238 12 268 355 257 277 2 273 76 78 388 115 21 147 209 69 249 226 274 281 262 128 235 90 410 251 88 52 165 378 9 101
b 79 412 405 358 22 10 359 16 79 286 199 222 272 123 162 414 51 159 41 70 55 19 103 267 43 109 375 250 407 391 372 157 239 373 154 204 31 335 39 59 174 18 86 282 169 164 166 215 144 389 237 228 139 229 291 179 409 245 83 116 246 170 279 212 29 224 142 131 360 180 188 192 263 149 72 98 362 223 99 270 122 110 216 368 4 242 225 185 11 233 379 40 193 218 89 201 5 62 248 105 392 96 143 189 26 186 182 124 129 125 75 365 371 376 411 171 172 258 66 24 58 104 53 394 361 176 404 203 112 347 17 390 57 377 137 15 138 357 44 1 33 106 178 264 238 12 268 355 257 277 2 273 76 78 388 115 21 147 209 69 249 226 274 281 262 128 235 90 410 251 88 52 165 378 9 101
b 80 405 358 22 10 359 16 79 286 199 222 272 123 162 414 51 159 41 70 55 19 103 267 43 109 375 250 407 391 372 157 239 373 154 204 31 335 39 59 174 18 86 282 169 164 166 215 144 389 237 228 139 229 291 179 409 245 83 116 246 170 279 212 29 224 142 131 360 180 188 192 263 149 72 98 362 223 99 270 122 110 216 368 4 242 225 185 11 233 379 40 193 218 89 201 5 62 248 105 392 96 143 189 26 186 182 124 129 158 125 75 365 371 376 411 171 172 258 66 24 58 104 53 394 361 176 404 203 112 347 17 390 57 377 137 15 138 357 44 1 33 106 178 264 238 12 268 355 257 277 2 273 76 78 388 115 21 147 209 69 249 226 274 281 262 128 235 90 410 251 88 52 165 378 9 101
b 81 22 10 359 16 79 286 199 222 272 123 162 414 51 159 41 70 55 19 103 267 43 109 375 250 407 391 372 157 239 373 154 204 31 335 39 59 174 18 86 282 169 164 166 215 144 389 237 228 139 229 291 179 409 245 83 116 246 170 279 212 29 224 142 131 360 180 188 192 263 149 72 98 362 223 99 270 122 110 216 368 4 242 225 185 11 233 379 40 193 218 89 201 5 62 248 105 392 96 143 189 26 186 182 124 129 158 125 75 365 371 376 411 171 172 258 66 413 24 58 104 53 394 361 176 404 203 112 347 17 390 57 377 137 15 138 357 44 1 33 106 178 264 238 12 268 355 257 277 2 273 76 78 388 115 21 147 209 69 249 226 274 281 262 128 235 90 410 251 88 52 165 378 9 101
b 82 3 95 7 360
b 83 380 6 208 117 71 49 7 35 16 79 70 55 372 154 59 174 4 218 75 411 57
b 84 42 81 6 214 95 117 184 259 34 255 374 375 250 407 154 31 335 110 368 258 257 277 410
b 85 81 6 214 95 117 184 259 236 34 255 374 375 250 407 154 31 335 110 368 182 258 257 277 8 410 9
b 86 231 6 166 124 276
b 87 6 208 214 95 117 71 49 7 35 184 259 236 34 255 374 16 79 70 55 375 250 407 372 154 31 335 59 174 166 223 110 368 4 218 182 124 75 411 258 203 57 357 276 257 277 8 410 9
b 88 23 396 285 95 64 207 144 98 233 379 62 182 104 347 138
b 89 396 285 95 64 207 79 144 228 98 233 379 62 182 104 347 138 388
b 90 370 285 208 214 260 219 141 35 34 374 384 286 199 123 55 237 96 58 57 377 137 138 25 69
b 91 285 208 214 95 260 64 207 219 141 35 34 374 384 79 286 199 123 55 144 237 228 246 98 11 233 379 62 96 182 58 104 347 57 377 137 138 106 25 76 388 69 101
b 92 208 214 95 260 117 108 64 207 71 49 219 141 7 35 184 259 236 34 255 374 384 16 79 286 199 123 51 70 55 375 250 407 372 154 31 335 59 174 166 144 237 228 246 247 98 223 110 368 4 11 233 379 218 62 96 182 124 75 411 258 58 104 203 347 57 377 137 138 357 44 106 127 276 25 257 277 76 388 8 69 410 9 101
b 93 214 95 260 117 108 64 207 71 49 219 141 7 35 184 259 236 34 255 374 384 16 79 286 199 123 51 159 70 55 375 250 407 372 154 31 335 59 174 166 144 237 228 246 247 98 223 110 368 4 11 233 379 218 89 62 96 182 124 75 411 258 58 104 203 347 57 377 137 138 357 44 106 127 276 25 257 277 76 388 8 69 235 410 9 101
b 94 95 260 117 108 64 207 71 49 219 141 7 35 184 259 236 34 255 374 384 16 79 286 199 123 51 159 70 55 375 250 407 372 154 204 31 335 59 174 166 144 237 228 246 360 247 98 223 110 368 4 11 233 379 218 89 62 96 182 124 75 411 258 58 104 203 347 57 377 137 138 357 44 106 127 276 25 257 277 76 388 8 69 235 410 9 101
b 95 366 221 191 54 74 240 260 49 219 34 179 409 245 29 142 167 98 362 223 11 233 379 58
b 96 221 191 54 74 240 260 49 219 259 34 267 179 409 245 29 142 167 98 362 223 11 233 379 58 53 127 388 175
b 97 107 191 240 151 381 34 157 119 291 29 224 263 98 223 96 143 129 371 376 171 258 112 390 178
b 98 191 54 74 240 260 151 49 219 381 259 34 55 267 375 157 119 291 179 409 245 29 224 142 263 167 98 362 223 11 233 379 96 143 129 371 376 171 258 58 53 112 390 178 127 388 175
b 99 100 54 83 201 158
b 100 54 74 240 260 151 49 219 381 259 34 162 55 267 375 157 119 291 179 409 245 83 212 29 224 142 263 167 98 362 223 11 233 379 201 96 143 129 158 365 371 376 171 258 58 53 112 390 178 127 388 175
b 101 20 173 74 117 49 219 381 414 70 335 39 59 389 368 411 171 394 15 238 12 268
b 102 173 74 117 64 49 219 381 184 162 414 70 335 39 59 389 368 365 411 171 394 15 238 12 268 274 90
b 103 74 240 260 117 64 151 49 219 381 184 259 34 162 414 70 55 267 375 157 335 39 59 119 389 291 179 409 245 83 212 29 224 142 263 167 98 362 223 368 11 233 379 201 96 143 129 158 365 371 376 411 171 258 58 53 394 112 390 15 178 127 238 12 268 388 175 274 90
b 104 408 93 240 259 236 391 373 169 192 362 129 158 125 258 58 52
b 105 93 240 259 236 374 222 391 373 169 83 192 362 129 158 125 258 58 104 251 52
b 106 240 260 117 64 151 49 219 381 184 259 236 34 374 222 162 414 70 55 267 375 391 157 373 335 39 59 119 169 389 291 179 409 245 83 212 29 224 142 192 263 167 98 362 223 368 11 233 379 201 96 143 26 129 158 125 365 371 376 411 171 258 58 104 53 394 112 390 15 178 127 238 12 268 355 388 175 274 90 251 52
b 107 406 117 241 270 185
b 108 260 117 108 64 207 151 71 49 219 141 381 7 35 184 259 236 34 255 374 384 16 79 286 199 222 123 162 414 51 159 70 55 267 375 250 407 391 372 157 373 154 204 31 335 39 59 174 119 169 166 144 389 237 228 291 179 409 245 83 246 212 29 224 142 360 247 192 263 167 98 362 223 110 368 4 11 233 379 218 89 201 62 96 143 26 182 124 129 158 125 75 365 371 376 411 171 258 58 104 53 394 203 112 347 17 390 57 377 137 15 138 357 44 106 178 127 276 238 25 12 268 355 257 277 76 388 8 175 69 274 235 90 410 251 52 9 101
b 109 117 108 64 207 151 71 49 219 141 381 7 35 184 259 236 34 255 374 384 16 79 286 199 222 123 162 414 51 159 70 55 267 375 250 407 391 372 157 373 154 204 31 335 39 59 174 119 169 166 144 389 237 228 241 291 179 409 245 83 246 212 29 224 142 360 247 192 263 167 98 362 223 270 110 368 4 185 11 233 379 218 89 201 62 96 143 26 182 124 129 158 125 75 365 371 376 411 171 258 58 104 53 394 203 112 347 17 390 57 377 137 15 138 357 44 106 178 127 276 238 25 12 268 355 257 277 76 388 8 175 69 274 235 90 410 251 52 9 101
b 110 114 97 49 19
b 111 97 198 49 51 19 360
b 112 198 61 32 134 181 49 51 70 19 282 119 139 360 270 122 40 53 394 57 137 12 410 52
b 113 61 32 134 181 108 49 141 51 70 19 282 119 228 139 360 99 270 122 40 53 394 57 137 12 410 52
b 114 118 63 395 236 34 384 159 166 215 241 180 72 242 225 218 89 201 189 361 176 404 57 52
b 115 63 227 205 395 207 151 236 34 384 16 159 164 166 215 144 389 241 180 188 72 242 225 218 89 201 248 105 392 189 365 66 413 361 176 404 17 57 277 2 147 52
b 116 227 205 395 207 151 236 34 384 16 159 157 164 166 215 144 389 237 241 180 188 72 242 225 218 89 201 248 105 392 189 129 365 66 413 361 176 404 17 57 277 2 78 147 88 52 101
b 117 397 205 32 207 7 35 255 384 179 116 224 188 149 167 5 105 171 58 104 203 347 52
b 118 205 32 395 207 151 7 35 236 34 255 384 16 159 157 164 166 215 144 389 237 241 179 116 224 180 188 149 72 167 242 225 218 89 201 5 248 105 392 189 129 75 365 171 66 413 58 104 361 176 404 203 347 17 57 277 2 78 175 147 88 52 9 101
b 119 32 134 395 181 108 207 151 49 141 7 35 236 34 255 384 16 51 159 70 19 157 282 119 164 166 215 144 389 237 228 139 241 179 116 224 360 180 188 149 72 167 99 270 122 242 225 40 218 89 201 5 248 105 392 189 129 75 365 171 66 413 58 104 53 394 361 176 404 203 347 17 57 137 12 277 2 78 175 147 410 88 52 9 101
b 120 145 73 134 35 103 18 86 164 58
b 121 91 80 73 111 395 181 291 170 279 212 360 247 216 186 376 66 106 178
b 122 73 111 134 395 181 35 236 103 174 18 86 282 164 291 170 279 212 360 247 188 362 270 216 186 376 172 66 58 377 137 15 106 178 238 25 21 378
b 123 121 111 401 43 373 39 229 365 411 258 25
b 124 111 401 134 395 181 64 35 236 103 43 373 39 174 18 86 282 164 229 291 170 279 212 360 247 188 362 270 216 186 365 376 411 172 258 66 58 377 137 15 106 178 238 25 21 378
b 125 28 126 401 395
b 126 126 401 395 19 116 138
b 127 87 146 291 242 379 40 1
b 128 195 146 181 219 255 374 123 41 31 158 371 413 69 262 52
b 129 393 230 278 146 134 395 49 141 381 250 391 239 204 362 233 392 172 258 176 112 1 178 276 251
b 130 230 278 146 134 395 49 141 381 184 250 391 239 204 180 362 233 392 172 258 176 112 1 33 178 276 251
b 131 278 146 134 395 181 49 141 381 184 272 250 391 239 204 246 180 362 233 392 172 258 176 112 1 33 178 276 251
b 132 146 401 134 395 181 49 219 141 381 7 184 255 374 272 123 41 250 391 239 204 31 291 246 180 362 242 233 379 40 392 158 371 172 258 413 176 112 1 33 178 276 69 262 251 52
b 133 401 134 395 181 64 49 219 141 381 7 35 184 236 255 374 272 123 41 19 103 43 250 391 157 239 373 204 31 39 174 18 86 282 164 229 291 116 246 170 279 212 360 247 180 188 362 270 216 242 233 379 40 5 62 392 186 158 75 365 371 376 411 172 258 66 413 58 176 112 377 137 15 138 1 33 106 178 276 238 25 21 69 262 251 52 378
b 134 134 395 181 108 64 207 151 49 219 141 381 7 35 184 259 236 34 255 374 384 16 272 123 51 159 41 70 19 103 43 250 391 157 239 373 204 31 39 174 18 86 282 119 164 166 215 144 389 237 228 139 241 229 291 179 409 116 246 170 279 212 224 360 247 180 188 149 72 167 362 99 270 122 216 242 225 233 379 40 218 89 201 5 62 248 105 392 189 186 129 158 75 365 371 376 411 171 172 258 66 413 58 104 53 394 361 176 404 203 112 347 17 57 377 137 15 138 1 33 106 178 276 238 25 12 277 2 78 175 21 147 69 262 410 251 88 52 378 9 101
b 135 181 108 64 207 151 71 49 219 141 381 7 35 184 259 236 34 255 374 384 16 272 123 51 159 41 70 19 103 43 250 391 157 239 373 204 31 39 174 18 86 282 119 164 166 215 144 389 237 228 139 241 229 291 179 409 116 246 170 279 212 224 360 247 180 188 149 72 167 362 99 270 122 216 242 225 233 379 40 218 89 201 5 62 248 105 392 189 186 129 158 75 365 371 376 411 171 172 258 66 413 58 104 53 394 361 176 404 203 112 347 17 57 377 137 15 138 1 33 106 178 276 238 25 12 140 277 2 78 175 21 147 69 262 410 251 88 52 378 9 101
b 136 108 64 207 151 71 49 219 141 381 7 35 184 259 236 34 255 374 384 16 79 286 199 222 272 123 162 414 51 159 41 70 55 19 103 267 43 375 250 407 391 372 157 239 373 154 204 31 335 39 59 174 18 86 282 119 169 164 166 215 144 389 237 228 139 241 229 291 179 409 245 83 116 246 170 279 212 29 224 142 360 247 180 188 192 263 149 72 167 98 362 223 99 270 122 110 216 368 4 242 225 185 11 233 379 40 218 89 201 5 62 248 105 392 96 143 189 26 186 182 124 129 158 125 75 365 371 376 411 171 172 258 66 413 58 104 53 394 361 176 404 203 112 347 17 390 57 377 137 15 138 357 44 1 33 106 178 127 276 238 25 12 140 268 355 257 277 2 76 78 388 8 175 21 147 69 274 262 235 90 410 251 88 52 378 9 101
b 137 207 151 71 49 219 141 381 7 35 184 259 236 34 255 374 384 16 79 286 199 222 272 123 162 414 51 159 41 70 55 19 103 267 43 375 250 407 391 372 157 239 373 154 204 31 335 39 59 174 18 86 282 119 169 164 166 215 144 389 237 228 139 241 229 291 179 409 245 83 116 246 170 279 212 29 224 142 131 360 247 180 188 192 263 149 72 167 98 362 223 99 270 122 110 216 368 4 242 225 185 11 233 379 40 218 89 201 5 62 248 105 392 96 143 189 26 186 182 124 129 158 125 75 365 371 376 411 171 172 258 66 413 58 104 53 394 361 176 404 203 112 347 17 390 57 377 137 15 138 357 44 1 33 106 178 127 276 238 25 12 140 268 355 257 277 2 76 78 388 8 175 21 147 69 274 262 235 90 410 251 88 52 378 9 101
b 138 219 141 381 7 35 184 259 236 34 255 374 384 16 79 286 199 222 272 123 162 414 51 159 41 70 55 19 103 267 43 375 250 407 391 372 157 239 373 154 204 31 335 39 59 174 18 86 282 119 169 164 166 215 144 389 237 228 139 241 229 291 179 409 245 83 116 246 170 279 212 29 224 142 131 360 247 180 188 192 263 149 72 167 98 362 223 99 270 122 110 216 368 4 242 225 185 11 233 379 40 218 89 201 5 62 248 105 392 96 143 189 26 186 182 124 129 158 125 75 365 371 376 411 171 172 258 66 413 58 104 53 394 361 176 404 203 112 347 17 390 57 377 137 15 138 357 44 1 33 106 178 127 276 238 25 12 140 268 355 257 277 2 76 78 388 8 175 21 147 69 274 281 262 235 90 410 251 197 88 52 378 9 101
b 139 184 259 236 34 255 374 384 16 79 286 199 222 272 123 162 414 51 159 41 70 55 19 103 267 43 375 250 407 391 372 157 239 373 154 204 31 335 39 59 174 18 86 282 119 169 164 166 215 144 389 237 228 139 241 229 291 179 409 245 83 116 246 170 279 212 29 224 142 131 360 247 180 188 192 263 149 72 167 98 362 223 99 270 122 110 216 368 4 242 225 185 11 233 379 40 193 218 89 201 5 62 248 105 392 96 143 189 26 186 182 124 129 158 125 75 365 371 376 411 171 172 258 66 413 58 104 53 394 361 176 404 203 112 347 17 390 57 377 137 15 138 357 44 1 33 106 178 127 276 238 25 12 140 268 355 257 277 2 76 78 388 8 175 21 147 69 274 281 262 235 90 410 251 197 88 52 378 9 101
b 140 259 236 34 255 374 384 16 79 286 199 222 272 123 162 414 51 159 41 70 55 19 103 267 43 375 250 407 391 372 157 239 373 154 204 31 335 39 59 174 18 86 282 119 169 164 166 215 144 389 237 228 139 241 229 291 179 409 245 83 116 246 170 279 212 29 224 142 131 360 247 180 188 192 263 149 72 167 98 362 223 99 270 122 110 216 368 4 242 225 185 11 233 379 40 193 218 89 201 5 62 248 105 392 96 143 189 26 186 182 124 129 158 125 75 365 371 376 411 171 172 258 66 413 58 104 53 394 361 176 404 203 112 347 17 390 57 377 137 15 138 357 44 1 33 106 178 127 276 238 25 12 140 268 355 257 277 2 76 78 388 8 175 115 21 147 69 274 281 262 235 90 410 251 197 88 52 378 9 101
b 141 34 255 374 384 16 79 286 199 222 272 123 162 414 51 159 41 70 55 19 103 267 43 109 375 250 407 391 372 157 239 373 154 204 31 335 39 59 174 18 86 282 119 169 164 166 215 144 389 237 228 139 241 229 291 179 409 245 83 116 246 170 279 212 29 224 142 131 360 247 180 188 192 263 149 72 167 98 362 223 99 270 122 110 216 368 4 242 225 185 11 233 379 40 193 218 89 201 5 62 248 105 392 96 143 189 26 186 182 124 129 158 125 75 365 371 376 411 171 172 258 66 413 24 58 104 53 394 361 176 404 203 112 347 17 390 57 377 137 15 138 357 44 1 33 106 178 264 127 276 238 25 12 140 268 355 257 277 2 76 78 388 8 175 115 21 147 69 274 281 262 235 90 410 251 197 88 52 378 9 101
b 142 369 79 228 413
b 143 386 70 216 225 277
b 144 200 239 390 127 101
b 145 16 79 286 199 222 272 123 162 414 51 159 41 70 55 19 103 267 43 109 375 250 407 391 372 157 239 373 154 204 31 335 39 59 174 18 86 282 119 169 164 166 215 144 389 237 228 139 241 229 291 179 409 245 83 116 246 170 279 212 29 224 142 131 360 247 180 188 192 263 149 72 167 98 362 223 99 270 122 110 216 368 4 242 225 185 11 233 379 40 193 218 89 201 5 62 248 105 392 96 143 189 26 186 182 124 129 158 125 75 365 371 376 411 171 172 258 66 413 24 58 104 53 394 361 176 404 203 112 347 17 390 57 377 137 15 138 357 44 1 33 106 178 264 127 276 238 25 12 140 268 355 257 277 2 273 76 78 388 8 175 115 21 147 209 69 249 226 274 281 262 128 235 90 410 251 197 88 52 165 378 9 101
b 146 241 229 291 179 409 245 83 116 246 170 279 212 29 224 142 131 360 247 180 188 192 263 149 72 167 98 362 223 99 270 122 110 216 368 4 242 225 185 11 233 379 40 193 218 89 201 5 62 248 105 392 96 143 189 26 186 182 124 129 158 125 75 365 371 376 411 171 172 258 66 413 24 58 104 53 394 361 176 404 203 112 347 17 390 57 377 137 15 138 357 44 1 33 106 178 264 127 276 238 25 12 140 268 355 257 277 2 273 76 78 388 8 175 115 21 147 232 209 69 249 226 274 281 262 128 235 90 410 251 197 88 52 165 378 9 101
b 147 149 72 167 98 362 223 99 270 122 110 216 368 4 242 225 185 11 233 379 40 193 218 89 201 5 62 248 105 392 96 143 189 26 186 182 124 129 158 125 75 365 371 376 411 171 172 258 66 413 24 58 104 53 394 361 176 404 203 112 347 17 390 57 377 137 15 138 357 44 1 33 106 178 264 127 276 238 25 12 140 367 268 355 257 277 2 273 76 78 388 8 175 115 21 147 232 209 69 249 226 274 281 262 128 235 90 410 251 197 88 52 165 378 9 101
b 148 309 311 338 294 332
b 149 311 56 338 294 334 332
b 150 56 338 294 334 332 106 178 76 226 274 281 165
b 151 244 310 345 306 264 276 268 277 251
b 152 293 312 310 345 306 338 350 343 334 322 316
b 153 310 345 306 338 290 340 350 343 334 322 316 264 276 268 277 115 21 128 251 378 9
b 154 333 306 8 175
b 155 306 338 290 340 350 343 334 322 330 316 264 276 268 277 8 175 115 21 128 251 378 9
b 156 338 294 290 344 287 340 350 343 334 322 330 332 316 106 178 264 276 268 277 76 8 175 115 21 226 274 281 128 251 165 378 9
b 157 296 298 294 332 316 197
b 158 318 163 308 298 340 350 334 322 326 316 351 197
b 159 163 308 298 340 350 334 322 326 353 316 351 249 235 197 165
b 160 308 298 340 350 334 322 326 353 316 351 21 249 235 197 165
b 161 307 275 298 343 2 78 8 147 232 90 101
b 162 275 298 294 290 344 343 33 2 78 8 147 232 90 101
b 163 288 298 140 128
b 164 298 294 290 344 287 340 350 343 334 322 326 332 353 316 351 33 140 2 78 8 21 147 232 249 128 235 90 197 165 101
b 165 294 290 344 287 340 350 343 334 322 326 330 332 353 316 351 44 33 106 178 264 276 140 268 277 2 76 78 8 175 115 21 147 232 249 226 274 281 128 235 90 251 197 165 378 9 101
b 166 321 328 301 327 323 344 340 332 357 127 175 115 232 9
b 167 328 301 327 323 344 287 340 332 357 127 175 115 232 9
b 168 337 352 301 300 295 330 332 353 316 78 209 101
b 169 352 301 300 295 326 330 332 353 316 78 209 101
b 170 301 300 295 327 323 344 287 340 326 330 332 353 316 357 127 78 175 115 232 209 9 101
b 171 243 299 283 300 340 343 268 257 273 281
b 172 299 283 300 323 340 343 44 268 257 273 147 281
b 173 300 295 327 323 344 287 340 343 326 330 332 353 316 357 44 127 367 268 257 273 78 175 115 147 232 209 281 9 101
b 174 303 341 348 297 327 323 2 175 232 209
b 175 341 348 297 327 323 1 33 2 175 232 209
b 176 319 346 348 297 44 25 128 378
b 177 346 348 297 327 44 25 128 90 197 378
b 178 187 348 273 209 262
b 179 348 297 327 323 44 1 33 25 2 273 175 232 209 262 128 90 197 378
b 180 314 325 297 295 334 127 21 410
b 181 325 297 295 334 322 127 388 21 410 101
b 182 297 295 327 323 334 322 353 351 44 1 33 127 25 2 273 388 175 21 147 232 209 262 128 90 410 197 378 9 101
b 183 295 327 323 344 287 340 343 334 322 326 330 332 353 316 351 357 44 1 33 127 25 367 268 257 2 273 78 388 175 115 21 147 232 209 281 262 128 90 410 197 378 9 101
b 184 327 323 344 287 340 350 343 334 322 326 330 332 353 316 351 357 44 1 33 127 25 367 268 257 2 273 78 388 175 115 21 147 232 209 281 262 128 90 410 197 378 9 101
b 185 133 351 238 12 268 355 69 88 52 9
b 186 331 322 351
b 187 344 287 340 350 343 334 322 326 330 332 353 316 351 357 44 1 33 106 178 264 127 276 25 140 367 268 257 277 2 273 76 78 388 8 175 115 21 147 232 209 249 226 274 281 262 128 235 90 410 251 197 165 378 9 101
b 188 351 357 44 1 33 106 178 264 127 276 238 25 12 140 367 268 355 257 277 2 273 76 78 388 8 175 115 21 147 232 209 69 249 226 274 281 262 128 235 90 410 251 197 88 52 165 378 9 101
b 189 289
b 190 339
b 191 342
1 46
46 47
47 48
48 52
52 70
70 71
71 72
72 77
77 78
78 79
79 80
80 81
81 145
145 141
141 140
140 139
139 138
138 137
137 136
136 135
136 109
135 134
109 108
145 146
77 44
44 43
43 42
146 147
134 133
108 94
94 93
134 119
93 92
108 106
42 41
41 40
42 29
29 28
106 103
119 118
70 65
103 100
147 188
40 36
92 87
118 116
100 98
133 124
133 132
188 187
187 165
187 184
184 183
92 91
65 59
116 115
70 69
28 23
124 122
28 27
27 26
40 39
39 38
165 156
59 58
165 164
183 182
65 64
183 173
98 96
132 131
87 85
131 130
44 32
103 102
119 113
69 68
58 57
32 31
68 67
98 97
91 90
26 25
130 129
38 37
113 112
115 114
96 95
85 84
118 117
23 22
156 155
173 170
77 74
87 83
102 101
31 30
47 45
155 153
106 105
36 35
182 179
91 89
122 121
74 73
105 104
52 51
132 128
69 66
164 160
57 56
51 50
89 88
160 159
164 162
64 63
170 167
35 34
167 166
78 76
34 33
156 150
170 169
159 158
169 168
76 75
124 123
162 161
173 172
179 175
63 62
182 181
57 55
179 177
22 21
50 49
172 171
175 174
153 152
188 185
59 54
122 120
153 151
177 176
181 180
132 127
164 157
150 149
25 24
112 111
63 60
133 126
138 144
138 143
100 99
87 86
149 148
179 178
22 20
109 107
139 142
111 110
54 53
155 154
62 61
94 82
126 125
164 163
153 16
70 11
184 186
186 15
86 8
185 14
139 12
58 19
156 17
180 13
62 10
10 9
177 18
29 7
106 5
162 3
16 2
173 4
149 6
1 189
1 190
1 191
